NAME: tsp10_22
COMMENT: 10-tsp problem (Padberg/Rinaldi)
TYPE: TSP
DIMENSION: 10
EDGE_WEIGHT_TYPE : EUC_2D
NODE_COORD_SECTION
1 23 39
2 15 30
3 16 4
4 4 9
5 24 16
6 12 23
7 8 10
8 7 1
9 37 37
10 34 4
